unknown
(model
; cardinality of BoundSet is 1
(declare-sort BoundSet 0)
; rep: @uc_BoundSet_0
; cardinality of UnboundSet is 1
(declare-sort UnboundSet 0)
(declare-fun groundTerm_2 () UnboundSet)
(define-fun IsPresident ((BOUND_VARIABLE_392 BoundSet)) Bool true)
(define-fun IsGoodRoleModel ((BOUND_VARIABLE_392 BoundSet)) Bool true)
(define-fun IsLousyRoleModel ((BOUND_VARIABLE_392 BoundSet)) Bool false)
)
sat
(model
; cardinality of BoundSet is 1
(declare-sort BoundSet 0)
; rep: @uc_BoundSet_0
; cardinality of UnboundSet is 1
(declare-sort UnboundSet 0)
(declare-fun groundTerm_4 () UnboundSet)
(define-fun IsPresident ((BOUND_VARIABLE_400 BoundSet)) Bool true)
(define-fun IsGoodRoleModel ((BOUND_VARIABLE_400 BoundSet)) Bool true)
(define-fun IsLousyRoleModel ((BOUND_VARIABLE_400 BoundSet)) Bool false)
)
